g3 0 1 0	# problem ex14_1_2
 6 9 1 0 1	# vars, constraints, objectives, ranges, eqns
 9 0	# nonlinear constraints, objectives
 0 0	# network constraints: nonlinear, linear
 4 0 0	# nonlinear vars in constraints, objectives, both
 0 0 0 1	# linear network variables; functions; arith, flags
 0 0 0 0 0	# discrete variables: binary, integer, nonlinear (b,c,o)
 41 1	# nonzeros in Jacobian, gradients
 0 0	# max name lengths: constraints, variables
 0 0 0 0 0	# common exprs: b,c,o,c1,o1
b
0 0.0001 100
0 0.0001 100
0 0.0001 100
0 0.0001 100
0 0.0001 100
3
x5
0 0.0001
1 0.0001
2 0.0001
3 0.0001
4 0.0001
r
4 0
1 0
1 0
1 0
1 0
1 0
1 0
1 1
1 -1
C0
o2
v0
v1
C1
o54
5
o2
n2.8845e-06
o5
v1
n2
o2
o2
n2
v0
v1
o2
o2
n0.000545176668613029
v1
v2
o2
o2
n3.40735417883143e-05
v1
v3
o2
v1
o5
v2
n2
C2
o16
o54
5
o16
o2
n-2.8845e-06
o5
v1
n2
o2
o2
n2
v0
v1
o2
o2
n0.000545176668613029
v1
v2
o2
o2
n3.40735417883143e-05
v1
v3
o2
v1
o5
v2
n2
C3
o54
3
o2
n0.386
o5
v2
n2
o2
o2
n0.000545176668613029
v1
v2
o2
o2
n2
v1
o5
v2
n2
C4
o54
3
o2
n-0.386
o5
v2
n2
o16
o2
o2
n0.000545176668613029
v1
v2
o16
o2
o2
n2
v1
o5
v2
n2
C5
o0
o2
n2
o5
v3
n2
o2
o2
n3.40735417883143e-05
v1
v3
C6
o1
o2
n-2
o5
v3
n2
o2
o2
n3.40735417883143e-05
v1
v3
C7
o54
7
o2
n9.615e-07
o5
v1
n2
o2
n0.193
o5
v2
n2
o5
v3
n2
o2
v0
v1
o2
o2
n0.000545176668613029
v1
v2
o2
o2
n3.40735417883143e-05
v1
v3
o2
v1
o5
v2
n2
C8
o16
o54
7
o16
o2
n-9.615e-07
o5
v1
n2
o16
o2
n-0.193
o5
v2
n2
o5
v3
n2
o2
v0
v1
o2
o2
n0.000545176668613029
v1
v2
o2
o2
n3.40735417883143e-05
v1
v3
o2
v1
o5
v2
n2
O0 0
n0
k5
5
14
20
26
33
J0 3
0 1
1 0
4 -3
J1 6
0 1
1 4.4975e-07
2 0
3 0
4 -10
5 -1
J2 6
0 -1
1 -4.4975e-07
2 0
3 0
4 10
5 -1
J3 4
1 0
2 0.000410621754172864
4 -8
5 -1
J4 4
1 0
2 -0.000410621754172864
4 8
5 -1
J5 4
1 0
3 0
4 -40
5 -1
J6 4
1 0
3 0
4 40
5 -1
J7 5
0 1
1 4.4975e-07
2 0.000410621754172864
3 0
5 -1
J8 5
0 -1
1 -4.4975e-07
2 -0.000410621754172864
3 0
5 -1
G0 1
5 1
